150
0 65 148 8 132 27 109 134 51 72 
140 87 41 108 1 98 66 144 146 143 
3 84 124 58 21 115 104 92 118 20 
105 62 102 82 25 26 99 147 112 114 
2 9 91 74 49 69 73 130 136 97 
79 43 88 141 30 53 7 86 45 85 
81 142 111 19 135 131 78 10 11 64 
59 149 68 39 18 116 38 107 120 31 
24 122 76 93 106 33 48 4 12 29 
117 100 94 128 127 70 5 57 14 60 
50 46 95 77 15 54 42 16 123 13 
83 61 126 101 80 125 23 47 63 96 
40 28 32 56 113 6 36 103 22 129 
52 34 67 121 138 17 75 133 44 137 
110 89 35 139 119 145 71 55 37 90 
